p edge 25 37
e 0 7
e 1 2
e 1 4
e 1 5
e 1 7
e 1 8
e 1 14
e 1 22
e 2 22
e 3 8
e 3 21
e 4 10
e 5 14
e 5 19
e 5 24
e 6 13
e 7 9
e 7 18
e 7 20
e 8 17
e 9 13
e 9 16
e 9 23
e 11 12
e 11 13
e 11 16
e 11 23
e 12 18
e 14 16
e 14 22
e 15 17
e 15 18
e 15 20
e 15 23
e 16 17
e 18 19
e 18 22
